\Problem name: noname                                                           
\FICO Xpress v8.13.5, Community, written 10:48:52, Jun 8, 2022

Minimize
 41.23105625617661 x_1_0 + 49.24428900898052 x_2_0 + 36.05551275463989 x_3_0
 + 22.360679774997898 x_4_0 + 30 x_5_0 + 41.23105625617661 x_0_1
 + 30.4138126514911 x_2_1 + 31.622776601683793 x_3_1
 + 63.245553203367585 x_4_1 + 70.71067811865476 x_5_1
 + 49.24428900898052 x_0_2 + 30.4138126514911 x_1_2 + 15 x_3_2
 + 65.76473218982953 x_4_2 + 77.62087348130012 x_5_2 + 36.05551275463989 x_0_3
 + 31.622776601683793 x_1_3 + 15 x_2_3 + 50.99019513592785 x_4_3
 + 63.245553203367585 x_5_3 + 22.360679774997898 x_0_4
 + 63.245553203367585 x_1_4 + 65.76473218982953 x_2_4
 + 50.99019513592785 x_3_4 + 14.142135623730951 x_5_4 + 30 x_0_5
 + 70.71067811865476 x_1_5 + 77.62087348130012 x_2_5
 + 63.245553203367585 x_3_5 + 14.142135623730951 x_4_5 + 22.5 x_L_1_0
 + 23.717082451262844 x_L_2_0 + 22.5 x_L_0_1 + 27.04163456597992 x_L_2_1
 + 23.717082451262844 x_L_0_2 + 27.04163456597992 x_L_1_2
 + 12.020815280171307 x_l0_1_0 + 21.25 x_l0_2_0 + 17 x_l0_3_0
 + 43.34166586553867 x_l0_4_0 + 51 x_l0_5_0 + 12.020815280171307 x_l0_0_1
 + 25.851740753767434 x_l0_2_1 + 26.87936011143122 x_l0_3_1
 + 53.75872022286244 x_l0_4_1 + 60.10407640085654 x_l0_5_1 + 21.25 x_l0_0_2
 + 25.851740753767434 x_l0_1_2 + 12.75 x_l0_3_2 + 55.9000223613551 x_l0_4_2
 + 65.9777424591051 x_l0_5_2 + 17 x_l0_0_3 + 26.87936011143122 x_l0_1_3
 + 12.75 x_l0_2_3 + 43.34166586553867 x_l0_4_3 + 53.75872022286244 x_l0_5_3
 + 43.34166586553867 x_l0_0_4 + 53.75872022286244 x_l0_1_4
 + 55.9000223613551 x_l0_2_4 + 43.34166586553867 x_l0_3_4
 + 12.020815280171307 x_l0_5_4 + 51 x_l0_0_5 + 60.10407640085654 x_l0_1_5
 + 65.9777424591051 x_l0_2_5 + 53.75872022286244 x_l0_3_5
 + 12.020815280171307 x_l0_4_5 + 30.647185841443907 x_l1_1_0
 + 51.87786136686824 x_l1_2_0 + 45.77390086064328 x_l1_3_0 + 42.5 x_l1_4_0
 + 42.5 x_l1_5_0 + 30.647185841443907 x_l1_0_1 + 25.851740753767434 x_l1_2_1
 + 26.87936011143122 x_l1_3_1 + 53.75872022286244 x_l1_4_1
 + 60.10407640085654 x_l1_5_1 + 51.87786136686824 x_l1_0_2
 + 25.851740753767434 x_l1_1_2 + 12.75 x_l1_3_2 + 55.9000223613551 x_l1_4_2
 + 65.9777424591051 x_l1_5_2 + 45.77390086064328 x_l1_0_3
 + 26.87936011143122 x_l1_1_3 + 12.75 x_l1_2_3 + 43.34166586553867 x_l1_4_3
 + 53.75872022286244 x_l1_5_3 + 42.5 x_l1_0_4 + 53.75872022286244 x_l1_1_4
 + 55.9000223613551 x_l1_2_4 + 43.34166586553867 x_l1_3_4
 + 12.020815280171307 x_l1_5_4 + 42.5 x_l1_0_5 + 60.10407640085654 x_l1_1_5
 + 65.9777424591051 x_l1_2_5 + 53.75872022286244 x_l1_3_5
 + 12.020815280171307 x_l1_4_5 + 7.0710678118654755 w_c0_k0
 + 20.615528128088304 w_c1_k0 + 18.027756377319946 w_c2_k0 + 12.5 w_c0_k1
 + 24.62214450449026 w_c1_k1 + 30.516389039334257 w_c2_k1 + 30 w_c0_k2
 + 15 w_c1_k2 + 25 w_c2_k2

Subject To
R1: z_c0 + z_c0_l0 + z_c0_l1 + w_c0_k0 + w_c1_k0 + w_c2_k0 + w_c0_k1 + w_c1_k1
          + w_c2_k1 + w_c0_k2 + w_c1_k2 + w_c2_k2 = 1 
R2: z_c1 + z_c1_l0 + z_c1_l1 + w_c0_k0 + w_c1_k0 + w_c2_k0 + w_c0_k1 + w_c1_k1
          + w_c2_k1 + w_c0_k2 + w_c1_k2 + w_c2_k2 = 1 
R3: z_c2 + z_c2_l0 + z_c2_l1 + w_c0_k0 + w_c1_k0 + w_c2_k0 + w_c0_k1 + w_c1_k1
          + w_c2_k1 + w_c0_k2 + w_c1_k2 + w_c2_k2 = 1 
R4: z_c3 + z_c3_l0 + z_c3_l1 + w_c0_k0 + w_c1_k0 + w_c2_k0 + w_c0_k1 + w_c1_k1
          + w_c2_k1 + w_c0_k2 + w_c1_k2 + w_c2_k2 = 1 
R5: z_c4 + z_c4_l0 + z_c4_l1 + w_c0_k0 + w_c1_k0 + w_c2_k0 + w_c0_k1 + w_c1_k1
          + w_c2_k1 + w_c0_k2 + w_c1_k2 + w_c2_k2 = 1 
R6: w_c0_k0 + w_c1_k0 + w_c2_k0 <= 1 
R7: w_c0_k1 + w_c1_k1 + w_c2_k1 <= 1 
R8: w_c0_k2 + w_c1_k2 + w_c2_k2 <= 1 
R9: z_c0_l0 + z_c1_l0 + z_c2_l0 + z_c3_l0 + z_c4_l0 - 4 z_l_L_0 + w_c0_k0
          + w_c1_k0 + w_c2_k0 <= -1 
R10: z_c0_l1 + z_c1_l1 + z_c2_l1 + z_c3_l1 + z_c4_l1 - 4 z_l_L_1 + w_c0_k2
          + w_c1_k2 + w_c2_k2 <= -1 
R11: x_0_1 + x_1_1 + x_2_1 + x_3_1 + x_4_1 + x_5_1 - z_c0 = 0 
R12: x_0_2 + x_1_2 + x_2_2 + x_3_2 + x_4_2 + x_5_2 - z_c1 = 0 
R13: x_0_3 + x_1_3 + x_2_3 + x_3_3 + x_4_3 + x_5_3 - z_c2 = 0 
R14: x_0_4 + x_1_4 + x_2_4 + x_3_4 + x_4_4 + x_5_4 - z_c3 = 0 
R15: x_0_5 + x_1_5 + x_2_5 + x_3_5 + x_4_5 + x_5_5 - z_c4 = 0 
R16: x_1_0 + x_1_1 + x_1_2 + x_1_3 + x_1_4 + x_1_5 - z_c0 = 0 
R17: x_2_0 + x_2_1 + x_2_2 + x_2_3 + x_2_4 + x_2_5 - z_c1 = 0 
R18: x_3_0 + x_3_1 + x_3_2 + x_3_3 + x_3_4 + x_3_5 - z_c2 = 0 
R19: x_4_0 + x_4_1 + x_4_2 + x_4_3 + x_4_4 + x_4_5 - z_c3 = 0 
R20: x_5_0 + x_5_1 + x_5_2 + x_5_3 + x_5_4 + x_5_5 - z_c4 = 0 
R21: x_1_0 + x_2_0 + x_3_0 + x_4_0 + x_5_0 - x_0_1 - x_0_2 - x_0_3 - x_0_4
          - x_0_5 = 0 
R22: y_1_0 - y_0_1 - y_2_1 - y_3_1 - y_4_1 - y_5_1 + y_1_2 + y_1_3 + y_1_4
          + y_1_5 - z_c0 = 0 
R23: y_2_0 + y_2_1 - y_0_2 - y_1_2 - y_3_2 - y_4_2 - y_5_2 + y_2_3 + y_2_4
          + y_2_5 - z_c1 = 0 
R24: y_3_0 + y_3_1 + y_3_2 - y_0_3 - y_1_3 - y_2_3 - y_4_3 - y_5_3 + y_3_4
          + y_3_5 - z_c2 = 0 
R25: y_4_0 + y_4_1 + y_4_2 + y_4_3 - y_0_4 - y_1_4 - y_2_4 - y_3_4 - y_5_4
          + y_4_5 - z_c3 = 0 
R26: y_5_0 + y_5_1 + y_5_2 + y_5_3 + y_5_4 - y_0_5 - y_1_5 - y_2_5 - y_3_5
          - y_4_5 - z_c4 = 0 
R27: - y_1_0 - y_2_0 - y_3_0 - y_4_0 - y_5_0 + y_0_1 + y_0_2 + y_0_3 + y_0_4
          + y_0_5 + z_c0 + z_c1 + z_c2 + z_c3 + z_c4 = 0 
R28: - 3 x_0_0 + y_0_0 <= 0 
R29: - 3 x_1_0 + y_1_0 <= 0 
R30: - 3 x_2_0 + y_2_0 <= 0 
R31: - 3 x_3_0 + y_3_0 <= 0 
R32: - 3 x_4_0 + y_4_0 <= 0 
R33: - 3 x_5_0 + y_5_0 <= 0 
R34: - 3 x_0_1 + y_0_1 <= 0 
R35: - 3 x_1_1 + y_1_1 <= 0 
R36: - 3 x_2_1 + y_2_1 <= 0 
R37: - 3 x_3_1 + y_3_1 <= 0 
R38: - 3 x_4_1 + y_4_1 <= 0 
R39: - 3 x_5_1 + y_5_1 <= 0 
R40: - 3 x_0_2 + y_0_2 <= 0 
R41: - 3 x_1_2 + y_1_2 <= 0 
R42: - 3 x_2_2 + y_2_2 <= 0 
R43: - 3 x_3_2 + y_3_2 <= 0 
R44: - 3 x_4_2 + y_4_2 <= 0 
R45: - 3 x_5_2 + y_5_2 <= 0 
R46: - 3 x_0_3 + y_0_3 <= 0 
R47: - 3 x_1_3 + y_1_3 <= 0 
R48: - 3 x_2_3 + y_2_3 <= 0 
R49: - 3 x_3_3 + y_3_3 <= 0 
R50: - 3 x_4_3 + y_4_3 <= 0 
R51: - 3 x_5_3 + y_5_3 <= 0 
R52: - 3 x_0_4 + y_0_4 <= 0 
R53: - 3 x_1_4 + y_1_4 <= 0 
R54: - 3 x_2_4 + y_2_4 <= 0 
R55: - 3 x_3_4 + y_3_4 <= 0 
R56: - 3 x_4_4 + y_4_4 <= 0 
R57: - 3 x_5_4 + y_5_4 <= 0 
R58: - 3 x_0_5 + y_0_5 <= 0 
R59: - 3 x_1_5 + y_1_5 <= 0 
R60: - 3 x_2_5 + y_2_5 <= 0 
R61: - 3 x_3_5 + y_3_5 <= 0 
R62: - 3 x_4_5 + y_4_5 <= 0 
R63: - 3 x_5_5 + y_5_5 <= 0 
R64: y_0_1 = 0 
R65: y_0_2 = 0 
R66: y_0_3 = 0 
R67: y_0_4 = 0 
R68: y_0_5 = 0 
R69: x_L_0_1 + x_L_1_1 + x_L_2_1 - z_l_L_0 = 0 
R70: x_L_0_2 + x_L_1_2 + x_L_2_2 - z_l_L_1 = 0 
R71: x_L_1_0 + x_L_1_1 + x_L_1_2 - z_l_L_0 = 0 
R72: x_L_2_0 + x_L_2_1 + x_L_2_2 - z_l_L_1 = 0 
R73: x_L_1_0 + x_L_2_0 - x_L_0_1 - x_L_0_2 = 0 
R74: y_L_1_0 - y_L_0_1 - y_L_2_1 + y_L_1_2 - z_c0_l0 - z_c1_l0 - z_c2_l0
          - z_c3_l0 - z_c4_l0 - w_c0_k0 - w_c1_k0 - w_c2_k0 - w_c0_k1 - w_c1_k1
          - w_c2_k1 - w_c0_k2 - w_c1_k2 - w_c2_k2 = 3 
R75: y_L_2_0 + y_L_2_1 - y_L_0_2 - y_L_1_2 - z_c0_l1 - z_c1_l1 - z_c2_l1
          - z_c3_l1 - z_c4_l1 - w_c0_k0 - w_c1_k0 - w_c2_k0 - w_c0_k1 - w_c1_k1
          - w_c2_k1 - w_c0_k2 - w_c1_k2 - w_c2_k2 = 3 
R76: - y_L_1_0 - y_L_2_0 + y_L_0_1 + y_L_0_2 + z_c0_l0 + z_c1_l0 + z_c2_l0
          + z_c3_l0 + z_c4_l0 + z_c0_l1 + z_c1_l1 + z_c2_l1 + z_c3_l1 + z_c4_l1
          + w_c0_k0 + w_c1_k0 + w_c2_k0 + w_c0_k2 + w_c1_k2 + w_c2_k2 = -2 
R77: - 7 x_L_0_0 + y_L_0_0 <= 0 
R78: - 7 x_L_1_0 + y_L_1_0 <= 0 
R79: - 7 x_L_2_0 + y_L_2_0 <= 0 
R80: - 7 x_L_0_1 + y_L_0_1 <= 0 
R81: - 7 x_L_1_1 + y_L_1_1 <= 0 
R82: - 7 x_L_2_1 + y_L_2_1 <= 0 
R83: - 7 x_L_0_2 + y_L_0_2 <= 0 
R84: - 7 x_L_1_2 + y_L_1_2 <= 0 
R85: - 7 x_L_2_2 + y_L_2_2 <= 0 
R86: y_L_0_1 = 0 
R87: y_L_0_2 = 0 
R88: x_l0_0_1 + x_l0_1_1 + x_l0_2_1 + x_l0_3_1 + x_l0_4_1 + x_l0_5_1 - z_c0_l0
          = 0 
R89: x_l0_0_2 + x_l0_1_2 + x_l0_2_2 + x_l0_3_2 + x_l0_4_2 + x_l0_5_2 - z_c1_l0
          = 0 
R90: x_l0_0_3 + x_l0_1_3 + x_l0_2_3 + x_l0_3_3 + x_l0_4_3 + x_l0_5_3 - z_c2_l0
          = 0 
R91: x_l0_0_4 + x_l0_1_4 + x_l0_2_4 + x_l0_3_4 + x_l0_4_4 + x_l0_5_4 - z_c3_l0
          = 0 
R92: x_l0_0_5 + x_l0_1_5 + x_l0_2_5 + x_l0_3_5 + x_l0_4_5 + x_l0_5_5 - z_c4_l0
          = 0 
R93: x_l0_1_0 + x_l0_1_1 + x_l0_1_2 + x_l0_1_3 + x_l0_1_4 + x_l0_1_5 - z_c0_l0
          = 0 
R94: x_l0_2_0 + x_l0_2_1 + x_l0_2_2 + x_l0_2_3 + x_l0_2_4 + x_l0_2_5 - z_c1_l0
          = 0 
R95: x_l0_3_0 + x_l0_3_1 + x_l0_3_2 + x_l0_3_3 + x_l0_3_4 + x_l0_3_5 - z_c2_l0
          = 0 
R96: x_l0_4_0 + x_l0_4_1 + x_l0_4_2 + x_l0_4_3 + x_l0_4_4 + x_l0_4_5 - z_c3_l0
          = 0 
R97: x_l0_5_0 + x_l0_5_1 + x_l0_5_2 + x_l0_5_3 + x_l0_5_4 + x_l0_5_5 - z_c4_l0
          = 0 
R98: x_l0_1_0 + x_l0_2_0 + x_l0_3_0 + x_l0_4_0 + x_l0_5_0 - x_l0_0_1 - x_l0_0_2
          - x_l0_0_3 - x_l0_0_4 - x_l0_0_5 = 0 
R99: y_l0_1_0 - y_l0_0_1 - y_l0_2_1 - y_l0_3_1 - y_l0_4_1 - y_l0_5_1 + y_l0_1_2
          + y_l0_1_3 + y_l0_1_4 + y_l0_1_5 - z_c0_l0 = 0 
R100: y_l0_2_0 + y_l0_2_1 - y_l0_0_2 - y_l0_1_2 - y_l0_3_2 - y_l0_4_2
          - y_l0_5_2 + y_l0_2_3 + y_l0_2_4 + y_l0_2_5 - z_c1_l0 = 0 
R101: y_l0_3_0 + y_l0_3_1 + y_l0_3_2 - y_l0_0_3 - y_l0_1_3 - y_l0_2_3
          - y_l0_4_3 - y_l0_5_3 + y_l0_3_4 + y_l0_3_5 - z_c2_l0 = 0 
R102: y_l0_4_0 + y_l0_4_1 + y_l0_4_2 + y_l0_4_3 - y_l0_0_4 - y_l0_1_4
          - y_l0_2_4 - y_l0_3_4 - y_l0_5_4 + y_l0_4_5 - z_c3_l0 = 0 
R103: y_l0_5_0 + y_l0_5_1 + y_l0_5_2 + y_l0_5_3 + y_l0_5_4 - y_l0_0_5
          - y_l0_1_5 - y_l0_2_5 - y_l0_3_5 - y_l0_4_5 - z_c4_l0 = 0 
R104: - y_l0_1_0 - y_l0_2_0 - y_l0_3_0 - y_l0_4_0 - y_l0_5_0 + y_l0_0_1
          + y_l0_0_2 + y_l0_0_3 + y_l0_0_4 + y_l0_0_5 + z_c0_l0 + z_c1_l0
          + z_c2_l0 + z_c3_l0 + z_c4_l0 = 0 
R105: - 3 x_l0_0_0 + y_l0_0_0 <= 0 
R106: - 3 x_l0_1_0 + y_l0_1_0 <= 0 
R107: - 3 x_l0_2_0 + y_l0_2_0 <= 0 
R108: - 3 x_l0_3_0 + y_l0_3_0 <= 0 
R109: - 3 x_l0_4_0 + y_l0_4_0 <= 0 
R110: - 3 x_l0_5_0 + y_l0_5_0 <= 0 
R111: - 3 x_l0_0_1 + y_l0_0_1 <= 0 
R112: - 3 x_l0_1_1 + y_l0_1_1 <= 0 
R113: - 3 x_l0_2_1 + y_l0_2_1 <= 0 
R114: - 3 x_l0_3_1 + y_l0_3_1 <= 0 
R115: - 3 x_l0_4_1 + y_l0_4_1 <= 0 
R116: - 3 x_l0_5_1 + y_l0_5_1 <= 0 
R117: - 3 x_l0_0_2 + y_l0_0_2 <= 0 
R118: - 3 x_l0_1_2 + y_l0_1_2 <= 0 
R119: - 3 x_l0_2_2 + y_l0_2_2 <= 0 
R120: - 3 x_l0_3_2 + y_l0_3_2 <= 0 
R121: - 3 x_l0_4_2 + y_l0_4_2 <= 0 
R122: - 3 x_l0_5_2 + y_l0_5_2 <= 0 
R123: - 3 x_l0_0_3 + y_l0_0_3 <= 0 
R124: - 3 x_l0_1_3 + y_l0_1_3 <= 0 
R125: - 3 x_l0_2_3 + y_l0_2_3 <= 0 
R126: - 3 x_l0_3_3 + y_l0_3_3 <= 0 
R127: - 3 x_l0_4_3 + y_l0_4_3 <= 0 
R128: - 3 x_l0_5_3 + y_l0_5_3 <= 0 
R129: - 3 x_l0_0_4 + y_l0_0_4 <= 0 
R130: - 3 x_l0_1_4 + y_l0_1_4 <= 0 
R131: - 3 x_l0_2_4 + y_l0_2_4 <= 0 
R132: - 3 x_l0_3_4 + y_l0_3_4 <= 0 
R133: - 3 x_l0_4_4 + y_l0_4_4 <= 0 
R134: - 3 x_l0_5_4 + y_l0_5_4 <= 0 
R135: - 3 x_l0_0_5 + y_l0_0_5 <= 0 
R136: - 3 x_l0_1_5 + y_l0_1_5 <= 0 
R137: - 3 x_l0_2_5 + y_l0_2_5 <= 0 
R138: - 3 x_l0_3_5 + y_l0_3_5 <= 0 
R139: - 3 x_l0_4_5 + y_l0_4_5 <= 0 
R140: - 3 x_l0_5_5 + y_l0_5_5 <= 0 
R141: y_l0_0_1 = 0 
R142: y_l0_0_2 = 0 
R143: y_l0_0_3 = 0 
R144: y_l0_0_4 = 0 
R145: y_l0_0_5 = 0 
R146: x_l1_0_1 + x_l1_1_1 + x_l1_2_1 + x_l1_3_1 + x_l1_4_1 + x_l1_5_1 - z_c0_l1
          = 0 
R147: x_l1_0_2 + x_l1_1_2 + x_l1_2_2 + x_l1_3_2 + x_l1_4_2 + x_l1_5_2 - z_c1_l1
          = 0 
R148: x_l1_0_3 + x_l1_1_3 + x_l1_2_3 + x_l1_3_3 + x_l1_4_3 + x_l1_5_3 - z_c2_l1
          = 0 
R149: x_l1_0_4 + x_l1_1_4 + x_l1_2_4 + x_l1_3_4 + x_l1_4_4 + x_l1_5_4 - z_c3_l1
          = 0 
R150: x_l1_0_5 + x_l1_1_5 + x_l1_2_5 + x_l1_3_5 + x_l1_4_5 + x_l1_5_5 - z_c4_l1
          = 0 
R151: x_l1_1_0 + x_l1_1_1 + x_l1_1_2 + x_l1_1_3 + x_l1_1_4 + x_l1_1_5 - z_c0_l1
          = 0 
R152: x_l1_2_0 + x_l1_2_1 + x_l1_2_2 + x_l1_2_3 + x_l1_2_4 + x_l1_2_5 - z_c1_l1
          = 0 
R153: x_l1_3_0 + x_l1_3_1 + x_l1_3_2 + x_l1_3_3 + x_l1_3_4 + x_l1_3_5 - z_c2_l1
          = 0 
R154: x_l1_4_0 + x_l1_4_1 + x_l1_4_2 + x_l1_4_3 + x_l1_4_4 + x_l1_4_5 - z_c3_l1
          = 0 
R155: x_l1_5_0 + x_l1_5_1 + x_l1_5_2 + x_l1_5_3 + x_l1_5_4 + x_l1_5_5 - z_c4_l1
          = 0 
R156: x_l1_1_0 + x_l1_2_0 + x_l1_3_0 + x_l1_4_0 + x_l1_5_0 - x_l1_0_1
          - x_l1_0_2 - x_l1_0_3 - x_l1_0_4 - x_l1_0_5 = 0 
R157: y_l1_1_0 - y_l1_0_1 - y_l1_2_1 - y_l1_3_1 - y_l1_4_1 - y_l1_5_1
          + y_l1_1_2 + y_l1_1_3 + y_l1_1_4 + y_l1_1_5 - z_c0_l1 = 0 
R158: y_l1_2_0 + y_l1_2_1 - y_l1_0_2 - y_l1_1_2 - y_l1_3_2 - y_l1_4_2
          - y_l1_5_2 + y_l1_2_3 + y_l1_2_4 + y_l1_2_5 - z_c1_l1 = 0 
R159: y_l1_3_0 + y_l1_3_1 + y_l1_3_2 - y_l1_0_3 - y_l1_1_3 - y_l1_2_3
          - y_l1_4_3 - y_l1_5_3 + y_l1_3_4 + y_l1_3_5 - z_c2_l1 = 0 
R160: y_l1_4_0 + y_l1_4_1 + y_l1_4_2 + y_l1_4_3 - y_l1_0_4 - y_l1_1_4
          - y_l1_2_4 - y_l1_3_4 - y_l1_5_4 + y_l1_4_5 - z_c3_l1 = 0 
R161: y_l1_5_0 + y_l1_5_1 + y_l1_5_2 + y_l1_5_3 + y_l1_5_4 - y_l1_0_5
          - y_l1_1_5 - y_l1_2_5 - y_l1_3_5 - y_l1_4_5 - z_c4_l1 = 0 
R162: - y_l1_1_0 - y_l1_2_0 - y_l1_3_0 - y_l1_4_0 - y_l1_5_0 + y_l1_0_1
          + y_l1_0_2 + y_l1_0_3 + y_l1_0_4 + y_l1_0_5 + z_c0_l1 + z_c1_l1
          + z_c2_l1 + z_c3_l1 + z_c4_l1 = 0 
R163: - 3 x_l1_0_0 + y_l1_0_0 <= 0 
R164: - 3 x_l1_1_0 + y_l1_1_0 <= 0 
R165: - 3 x_l1_2_0 + y_l1_2_0 <= 0 
R166: - 3 x_l1_3_0 + y_l1_3_0 <= 0 
R167: - 3 x_l1_4_0 + y_l1_4_0 <= 0 
R168: - 3 x_l1_5_0 + y_l1_5_0 <= 0 
R169: - 3 x_l1_0_1 + y_l1_0_1 <= 0 
R170: - 3 x_l1_1_1 + y_l1_1_1 <= 0 
R171: - 3 x_l1_2_1 + y_l1_2_1 <= 0 
R172: - 3 x_l1_3_1 + y_l1_3_1 <= 0 
R173: - 3 x_l1_4_1 + y_l1_4_1 <= 0 
R174: - 3 x_l1_5_1 + y_l1_5_1 <= 0 
R175: - 3 x_l1_0_2 + y_l1_0_2 <= 0 
R176: - 3 x_l1_1_2 + y_l1_1_2 <= 0 
R177: - 3 x_l1_2_2 + y_l1_2_2 <= 0 
R178: - 3 x_l1_3_2 + y_l1_3_2 <= 0 
R179: - 3 x_l1_4_2 + y_l1_4_2 <= 0 
R180: - 3 x_l1_5_2 + y_l1_5_2 <= 0 
R181: - 3 x_l1_0_3 + y_l1_0_3 <= 0 
R182: - 3 x_l1_1_3 + y_l1_1_3 <= 0 
R183: - 3 x_l1_2_3 + y_l1_2_3 <= 0 
R184: - 3 x_l1_3_3 + y_l1_3_3 <= 0 
R185: - 3 x_l1_4_3 + y_l1_4_3 <= 0 
R186: - 3 x_l1_5_3 + y_l1_5_3 <= 0 
R187: - 3 x_l1_0_4 + y_l1_0_4 <= 0 
R188: - 3 x_l1_1_4 + y_l1_1_4 <= 0 
R189: - 3 x_l1_2_4 + y_l1_2_4 <= 0 
R190: - 3 x_l1_3_4 + y_l1_3_4 <= 0 
R191: - 3 x_l1_4_4 + y_l1_4_4 <= 0 
R192: - 3 x_l1_5_4 + y_l1_5_4 <= 0 
R193: - 3 x_l1_0_5 + y_l1_0_5 <= 0 
R194: - 3 x_l1_1_5 + y_l1_1_5 <= 0 
R195: - 3 x_l1_2_5 + y_l1_2_5 <= 0 
R196: - 3 x_l1_3_5 + y_l1_3_5 <= 0 
R197: - 3 x_l1_4_5 + y_l1_4_5 <= 0 
R198: - 3 x_l1_5_5 + y_l1_5_5 <= 0 
R199: y_l1_0_1 = 0 
R200: y_l1_0_2 = 0 
R201: y_l1_0_3 = 0 
R202: y_l1_0_4 = 0 
R203: y_l1_0_5 = 0 

Bounds

Generals
y_0_0 y_1_0 y_2_0 y_3_0 y_4_0 y_5_0 y_0_1 y_1_1 y_2_1 y_3_1 y_4_1 y_5_1 y_0_2 
y_1_2 y_2_2 y_3_2 y_4_2 y_5_2 y_0_3 y_1_3 y_2_3 y_3_3 y_4_3 y_5_3 y_0_4 y_1_4 
y_2_4 y_3_4 y_4_4 y_5_4 y_0_5 y_1_5 y_2_5 y_3_5 y_4_5 y_5_5 y_L_0_0 y_L_1_0 
y_L_2_0 y_L_0_1 y_L_1_1 y_L_2_1 y_L_0_2 y_L_1_2 y_L_2_2 y_l0_0_0 y_l0_1_0 
y_l0_2_0 y_l0_3_0 y_l0_4_0 y_l0_5_0 y_l0_0_1 y_l0_1_1 y_l0_2_1 y_l0_3_1 
y_l0_4_1 y_l0_5_1 y_l0_0_2 y_l0_1_2 y_l0_2_2 y_l0_3_2 y_l0_4_2 y_l0_5_2 
y_l0_0_3 y_l0_1_3 y_l0_2_3 y_l0_3_3 y_l0_4_3 y_l0_5_3 y_l0_0_4 y_l0_1_4 
y_l0_2_4 y_l0_3_4 y_l0_4_4 y_l0_5_4 y_l0_0_5 y_l0_1_5 y_l0_2_5 y_l0_3_5 
y_l0_4_5 y_l0_5_5 y_l1_0_0 y_l1_1_0 y_l1_2_0 y_l1_3_0 y_l1_4_0 y_l1_5_0 
y_l1_0_1 y_l1_1_1 y_l1_2_1 y_l1_3_1 y_l1_4_1 y_l1_5_1 y_l1_0_2 y_l1_1_2 
y_l1_2_2 y_l1_3_2 y_l1_4_2 y_l1_5_2 y_l1_0_3 y_l1_1_3 y_l1_2_3 y_l1_3_3 
y_l1_4_3 y_l1_5_3 y_l1_0_4 y_l1_1_4 y_l1_2_4 y_l1_3_4 y_l1_4_4 y_l1_5_4 
y_l1_0_5 y_l1_1_5 y_l1_2_5 y_l1_3_5 y_l1_4_5 y_l1_5_5 

Binaries
x_0_0 x_1_0 x_2_0 x_3_0 x_4_0 x_5_0 x_0_1 x_1_1 x_2_1 x_3_1 x_4_1 x_5_1 x_0_2 
x_1_2 x_2_2 x_3_2 x_4_2 x_5_2 x_0_3 x_1_3 x_2_3 x_3_3 x_4_3 x_5_3 x_0_4 x_1_4 
x_2_4 x_3_4 x_4_4 x_5_4 x_0_5 x_1_5 x_2_5 x_3_5 x_4_5 x_5_5 x_L_0_0 x_L_1_0 
x_L_2_0 x_L_0_1 x_L_1_1 x_L_2_1 x_L_0_2 x_L_1_2 x_L_2_2 x_l0_0_0 x_l0_1_0 
x_l0_2_0 x_l0_3_0 x_l0_4_0 x_l0_5_0 x_l0_0_1 x_l0_1_1 x_l0_2_1 x_l0_3_1 
x_l0_4_1 x_l0_5_1 x_l0_0_2 x_l0_1_2 x_l0_2_2 x_l0_3_2 x_l0_4_2 x_l0_5_2 
x_l0_0_3 x_l0_1_3 x_l0_2_3 x_l0_3_3 x_l0_4_3 x_l0_5_3 x_l0_0_4 x_l0_1_4 
x_l0_2_4 x_l0_3_4 x_l0_4_4 x_l0_5_4 x_l0_0_5 x_l0_1_5 x_l0_2_5 x_l0_3_5 
x_l0_4_5 x_l0_5_5 x_l1_0_0 x_l1_1_0 x_l1_2_0 x_l1_3_0 x_l1_4_0 x_l1_5_0 
x_l1_0_1 x_l1_1_1 x_l1_2_1 x_l1_3_1 x_l1_4_1 x_l1_5_1 x_l1_0_2 x_l1_1_2 
x_l1_2_2 x_l1_3_2 x_l1_4_2 x_l1_5_2 x_l1_0_3 x_l1_1_3 x_l1_2_3 x_l1_3_3 
x_l1_4_3 x_l1_5_3 x_l1_0_4 x_l1_1_4 x_l1_2_4 x_l1_3_4 x_l1_4_4 x_l1_5_4 
x_l1_0_5 x_l1_1_5 x_l1_2_5 x_l1_3_5 x_l1_4_5 x_l1_5_5 z_c0 z_c1 z_c2 z_c3 z_c4 
z_c0_l0 z_c1_l0 z_c2_l0 z_c3_l0 z_c4_l0 z_c0_l1 z_c1_l1 z_c2_l1 z_c3_l1 
z_c4_l1 z_l_L_0 z_l_L_1 w_c0_k0 w_c1_k0 w_c2_k0 w_c0_k1 w_c1_k1 w_c2_k1 
w_c0_k2 w_c1_k2 w_c2_k2 

End
